num_offers = 35;
num_halls = 10;
start=[44,30,40,60,32,1,25,48,57,45,47,33,39,6,15,32,93,24,19,66,71,89,39,61,46,5,18,34,35,33,54,57,52,59,52];
end=[92,72,46,78,36,90,93,59,96,79,58,100,89,93,69,68,94,53,27,67,96,93,81,66,69,87,93,50,42,47,63,77,64,94,64];
price=[4062,1633,240,713,132,6701,705,940,3350,2934,187,2479,3924,2689,4234,2326,56,2512,522,184,1945,267,1840,196,2175,3385,3919,1447,407,670,380,1330,369,1059,617];
requirement=[280,574,878,369,768,738,201,731,724,571,247,266,493,281,452,367,576,835,438,460,366,604,578,943,374,277,290,752,583,632,677,585,876,242,643];
capacity=[955,694,981,461,936,555,452,596,990,730];
